NAME: toy5
TYPE: TSP
COMMENT: 21-city problem (Groetschel)
DIMENSION: 21
EDGE_WEIGHT_TYPE: EXPLICIT
EDGE_WEIGHT_FORMAT: FULL_MATRIX 
EDGE_WEIGHT_SECTION
0 5 8 3 2
5 0 7 
8
3
2                                                   
EOF 